40
1 0 5
2 1 2
3 0 6
4 0 8
4 2 8
5 1 6
6 2 4
7 4 8
7 5 9
7 6 2
8 1 7
8 5 5
8 7 6
9 0 7
9 2 9
9 3 7
9 4 6
9 5 7
9 6 1
9 7 7
10 2 6
10 3 5
10 4 5
10 6 5
10 7 2
10 8 8
10 9 5
11 0 8
11 1 1
11 2 5
11 6 5
11 7 1
11 8 3
12 6 7
12 7 6
12 8 3
12 11 7
13 0 9
13 2 6
13 5 7
13 6 8
13 7 5
13 9 8
13 12 3
14 2 8
14 3 5
14 5 3
14 7 4
14 10 2
14 11 4
14 13 8
15 1 8
15 2 7
15 4 8
15 6 4
15 7 3
15 9 3
15 14 5
16 2 9
16 3 3
16 9 7
16 12 9
16 13 2
17 0 9
17 1 7
17 4 7
17 5 1
17 6 1
17 9 7
17 10 3
17 11 1
17 12 4
17 16 1
18 0 5
18 1 6
18 2 8
18 8 6
18 11 3
18 13 5
18 15 6
18 16 9
19 0 4
19 2 2
19 3 3
19 9 2
19 10 3
19 11 9
19 13 8
19 14 9
19 15 8
20 0 6
20 1 6
20 4 7
20 7 8
20 10 4
20 11 1
20 12 1
20 14 1
20 16 3
20 18 7
20 19 9
21 1 8
21 2 9
21 5 8
21 8 7
21 9 8
21 11 7
21 12 2
21 13 6
21 16 8
21 17 1
22 2 3
22 4 6
22 5 5
22 6 5
22 8 8
22 11 5
22 13 9
22 14 6
22 15 4
22 17 8
22 19 4
23 2 3
23 4 7
23 7 9
23 9 6
23 10 9
23 12 1
23 15 4
23 19 5
23 21 8
23 22 3
24 4 8
24 5 8
24 6 8
24 9 6
24 12 5
24 13 9
24 14 7
24 17 7
24 23 7
25 1 3
25 2 9
25 3 3
25 5 1
25 7 3
25 8 6
25 10 8
25 12 6
25 15 5
25 16 3
25 17 4
25 18 5
25 20 8
25 21 8
25 22 3
25 23 1
25 24 3
26 0 2
26 3 7
26 5 3
26 7 2
26 8 9
26 9 1
26 10 3
26 12 4
26 14 1
26 15 5
26 17 6
26 18 2
26 19 4
26 23 9
27 1 1
27 3 2
27 4 6
27 6 9
27 7 2
27 8 4
27 9 6
27 11 3
27 12 4
27 13 8
27 14 9
27 15 9
27 17 4
27 18 1
27 20 1
27 22 1
27 26 2
28 0 1
28 2 6
28 4 4
28 5 9
28 6 6
28 7 7
28 11 1
28 13 5
28 14 7
28 15 2
28 16 3
28 17 9
28 18 7
28 19 9
28 20 6
28 21 6
28 23 4
28 25 8
28 27 9
29 3 3
29 6 7
29 7 4
29 8 7
29 9 8
29 10 8
29 14 1
29 16 6
29 17 8
29 19 3
29 20 2
29 21 9
29 23 7
29 27 4
29 28 4
30 0 4
30 4 6
30 7 9
30 10 5
30 12 9
30 15 9
30 16 8
30 18 8
30 25 7
30 26 4
30 28 5
31 3 1
31 4 3
31 6 6
31 7 7
31 8 3
31 12 5
31 16 7
31 18 4
31 19 5
31 20 9
31 23 4
31 25 4
31 26 5
31 28 8
31 29 4
31 30 2
32 0 7
32 1 3
32 3 8
32 6 3
32 7 6
32 8 6
32 9 3
32 10 7
32 17 6
32 18 5
32 19 8
32 22 1
32 23 7
32 24 9
32 25 2
32 26 8
32 27 6
32 29 7
32 31 1
33 0 6
33 2 5
33 5 5
33 7 2
33 8 5
33 10 9
33 11 5
33 15 9
33 17 1
33 19 9
33 21 5
33 23 3
33 27 7
33 28 8
33 29 3
34 0 3
34 2 4
34 6 6
34 9 4
34 10 8
34 11 7
34 12 8
34 13 8
34 14 7
34 15 1
34 17 6
34 18 5
34 19 7
34 20 8
34 22 2
34 23 2
34 24 4
34 25 2
34 27 4
34 33 8
35 1 8
35 3 8
35 5 9
35 6 1
35 7 3
35 9 5
35 10 9
35 11 1
35 12 4
35 13 3
35 14 9
35 15 7
35 16 8
35 17 2
35 18 7
35 19 8
35 21 6
35 22 1
35 23 6
35 27 9
35 28 6
35 30 8
36 0 7
36 1 3
36 2 5
36 4 8
36 5 2
36 8 8
36 9 3
36 10 2
36 11 1
36 12 7
36 13 4
36 14 7
36 16 6
36 18 9
36 19 1
36 20 4
36 21 8
36 25 2
36 28 1
36 34 4
37 2 1
37 3 9
37 4 2
37 6 2
37 13 8
37 14 1
37 17 7
37 19 2
37 20 6
37 23 8
37 24 1
37 26 4
37 28 4
37 29 8
37 35 5
37 36 1
38 0 2
38 2 9
38 3 8
38 9 1
38 11 1
38 13 1
38 14 8
38 15 2
38 16 9
38 17 3
38 18 6
38 21 4
38 24 3
38 26 6
38 32 6
38 33 2
38 35 7
39 2 9
39 7 9
39 8 7
39 12 3
39 13 5
39 15 2
39 17 7
39 20 3
39 25 2
39 27 9
39 28 9
39 29 1
39 37 9
